								
[SetEffect_Set]	set_index	glove	boots	suit	helmet	2set	3set	4set
0	1	150	195	105	240	0	0	1
1	2	180	225	135	270	0	0	1
2	3	165	210	120	255	0	0	1
3	4	151	196	106	241	0	0	1
4	5	181	226	136	271	0	0	1
5	6	166	211	121	256	0	0	1
6	7	152	197	107	242	0	0	1
7	8	182	227	137	272	0	0	1
8	9	167	212	122	257	0	0	1
9	10	153	198	108	243	0	0	1
10	11	183	228	138	273	0	0	1
11	12	168	213	123	258	0	0	1
12	13	154	199	109	244	0	0	1
13	14	184	229	139	274	0	0	1
14	15	169	214	124	259	0	0	1
15	16	2744	2750	2738	2756	0	0	2
16	17	2748	2754	2742	2760	0	0	2
17	18	2749	2755	2743	2761	0	0	2
18	19	2747	2753	2741	2759	0	0	2
19	20	2745	2751	2739	2757	0	0	2
20	21	2746	2752	2740	2758	0	0	2
21	22	155	200	110	245	0	0	2
22	23	185	230	140	275	0	0	2
23	24	170	215	125	260	0	0	2
24	25	2768	2774	2762	2780	0	0	2
25	26	2772	2778	2766	2784	0	0	2
26	27	2773	2779	2767	2785	0	0	2
27	28	2771	2777	2765	2783	0	0	2
28	29	2769	2775	2763	2781	0	0	2
29	30	2770	2776	2764	2782	0	0	2
30	31	156	201	111	246	0	0	2
31	32	186	231	141	276	0	0	2
32	33	171	216	126	261	0	0	2
33	34	1320	1326	1314	1332	0	0	2
34	35	1324	1330	1318	1336	0	0	2
35	36	1325	1331	1319	1337	0	0	2
36	37	1323	1329	1317	1335	0	0	2
37	38	1321	1327	1315	1333	0	0	2
38	39	1322	1328	1316	1334	0	0	2
39	40	2792	2798	2786	2804	0	9	1
40	41	2796	2802	2790	2808	0	9	1
41	42	2797	2803	2791	2809	0	9	1
42	43	2795	2801	2789	2807	0	9	1
43	44	2793	2799	2787	2805	0	9	1
44	45	2794	2800	2788	2806	0	9	1
45	46	157	202	112	247	0	0	3
46	47	187	232	142	277	0	0	3
47	48	172	217	127	262	0	0	3
48	49	158	203	113	248	0	0	3
49	50	188	233	143	278	0	0	3
50	51	189	234	144	279	0	0	3
51	52	174	219	129	264	0	0	3
52	53	159	204	114	249	0	0	3
53	54	173	218	128	263	0	0	3
54	55	1639	1645	1633	1651	0	9	2
55	56	1643	1649	1637	1655	0	9	2
56	57	1644	1650	1638	1656	0	9	2
57	58	1642	1648	1636	1654	0	9	2
58	59	1640	1646	1634	1652	0	9	2
59	60	1641	1647	1635	1653	0	9	2
60	61	160	205	115	250	0	11	3
61	62	190	235	145	280	0	11	3
62	63	191	236	146	281	0	11	3
63	64	176	221	131	266	0	11	3
64	65	161	206	116	251	0	11	3
65	66	175	220	130	265	0	11	3
66	67	2716	2722	2710	2728	0	0	6
67	68	2720	2726	2714	2732	0	0	6
68	69	2721	2727	2715	2733	0	0	6
69	70	2719	2725	2713	2731	0	0	6
70	71	2717	2723	2711	2729	0	0	6
71	72	2718	2724	2712	2730	0	0	6
72	73	162	207	117	252	0	13	4
73	74	192	237	147	282	0	13	4
74	75	193	238	148	283	0	13	4
75	76	178	223	133	268	0	13	4
76	77	163	208	118	253	0	13	4
77	78	177	222	132	267	0	13	4
78	79	981	987	975	993	0	15	5
79	80	985	991	979	997	0	15	5
80	81	986	992	980	998	0	15	5
81	82	984	990	978	996	0	15	5
82	83	982	988	976	994	0	15	5
83	84	983	989	977	995	0	15	5
84	85	3720	3726	3714	3732	0	17	6
85	86	3724	3730	3718	3736	0	17	6
86	87	3725	3731	3719	3737	0	17	6
87	88	3723	3729	3717	3735	0	17	6
88	89	3721	3727	3715	3733	0	17	6
89	90	3722	3728	3716	3734	0	17	6
90	91	3933	3939	3927	3945	0	7	18
91	92	3937	3943	3931	3949	0	7	18
92	93	3938	3944	3932	3950	0	7	18
93	94	3936	3942	3930	3948	0	7	18
94	95	3934	3940	3928	3946	0	7	18
95	96	3935	3941	3929	3957	0	7	18
								
[SetEffect_epaulet]	epaulet	set_index	2set	3set	4set			
			
								
[SetEffect_option]	option_id	order	force_id	force_value	value_type			
95	1	0	1	500	1
96	1	1	5	250	1
96	1	2	97	10	2
96	1	3	98	40	2
96	1	4	112	10	2
95	2	0	1	400	1
96	2	1	5	200	1
95	3	0	1	700	1
96	3	1	5	300	1
96	3	2	97	15	2
96	3	3	98	40	2
96	3	4	112	15	2
95	4	0	1	900	1
96	4	1	5	350	1
96	4	2	97	20	2
96	4	3	98	50	2
96	4	4	112	20	2
95	5	0	1	1100	1
96	5	1	5	400	1
96	5	2	97	25	1
96	5	3	98	55	1
96	5	4	112	25	1
95	6	0	1	1500	1
96	6	1	5	700	1
96	6	2	97	30	1
96	6	3	98	60	1
96	6	4	112	30	1
95	7	0	1	1500	1
96	7	1	5	650	1
96	7	2	97	30	1
96	7	3	98	60	1
96	7	4	112	30	1
95	8	0	1	400	1
96	8	1	5	200	1
96	8	2	97	8	2
96	8	3	98	20	2
96	8	4	112	8	2
95	9	0	1	450	1
96	9	1	5	230	1
96	9	2	97	9	2
96	9	3	98	30	2
96	9	4	112	9	2
95	10	0	1	600	1
96	10	1	5	250	1
96	10	2	97	10	2
96	10	3	98	20	2
96	10	4	112	10	2
95	11	0	1	650	1
96	11	1	5	280	1
96	11	2	97	13	2
96	11	3	98	30	2
96	11	4	112	13	2
95	12	0	1	800	1
96	12	1	5	300	1
96	12	2	97	10	2
96	12	3	98	40	2
96	12	4	112	15	2
95	13	0	1	850	1
96	13	1	5	330	1
96	13	2	97	15	2
96	13	3	98	45	2
96	13	4	112	18	2
95	14	0	1	1000	1
96	14	1	5	350	1
96	14	2	97	20	2
96	14	3	98	45	2
96	14	4	112	20	2
95	15	0	1	1050	1
96	15	1	5	380	1
96	15	2	97	23	2
96	15	3	98	55	2
96	15	4	112	23	2
95	16	0	1	1300	1
96	16	1	5	650	1
96	16	2	97	25	2
96	16	3	98	45	2
96	16	4	112	25	2
95	17	0	1	1050	1
96	17	1	5	680	1
96	17	2	97	28	2
96	17	3	98	55	2
96	17	4	112	28	2
95	18	0	1	1700	1
96	18	1	5	750	1
96	18	2	97	34	2
96	18	3	98	70	2
96	18	4	112	38	2
95	19	0	1	1900	1
96	19	1	5	880	1
96	19	2	97	33	2
96	19	3	98	60	2
96	19	4	112	33	2
